15
1 0 59
2 0 41
2 1 5
3 0 66
3 1 20
3 2 93
4 0 3
4 1 13
4 2 26
4 3 46
5 0 89
5 1 5
5 2 23
5 3 81
5 4 62
6 0 74
6 1 66
6 2 46
6 3 4
6 4 52
6 5 2
7 0 49
7 1 46
7 2 32
7 3 5
7 4 89
7 5 26
7 6 86
8 0 78
8 1 14
8 2 25
8 3 30
8 4 80
8 5 52
8 6 2
8 7 4
9 0 45
9 1 56
9 2 47
9 3 1
9 4 93
9 5 47
9 6 32
9 7 82
9 8 63
10 0 72
10 1 34
10 2 48
10 3 4
10 4 83
10 5 44
10 6 55
10 7 14
10 8 20
10 9 2
11 0 94
11 1 9
11 2 50
11 3 15
11 4 82
11 5 59
11 6 97
11 7 47
11 8 20
11 9 39
11 10 61
12 0 91
12 1 28
12 2 55
12 3 11
12 4 57
12 5 58
12 6 62
12 7 12
12 8 47
12 9 35
12 10 84
12 11 94
13 0 88
13 1 95
13 2 96
13 3 8
13 4 48
13 5 10
13 6 33
13 7 99
13 8 67
13 9 15
13 10 26
13 11 100
13 12 55
14 0 92
14 1 93
14 2 39
14 3 63
14 4 53
14 5 37
14 6 87
14 7 19
14 8 51
14 9 6
14 10 18
14 11 78
14 12 97
14 13 42
